MOILP/bin/files/prueba2.txt
Maximize
	x1 - 2 x2
Maximize
	- x1 + 4 x2
Subject To
	- 2 x1 + x2 <= 0
Bounds
	0 <= x1 <= 3
	0 <= x2 <= 2
Integers
	x1 x2
End