Solvers/src/Entrada/prueba2.lp
Maximize
 obj: + 2.655523 var_1 - 2.70917 x_2 + x_3
Subject To
 ctr_0: - 3.4843450000000002 x_0 + x_3 <= 0.302499
 ctr_1: - 3.074807 x_0 + x_3 <= 0.507194
 eq_ctr: + x_0 + 1.01 var_1 - 0.99 x_2 = 0.594
Bounds
 x_0 <= 1.0
 var_1 <= 0.3
 x_2 <= 0.3
 -inf <= x_3 <= inf
End
